% demand
num_movements = 28;
loading_factor = [1800, 1500, 1900, 1450, 1800, 1200, 950, 1550, 1900, 950, 950, 2000, 1850, 1850, 900, 1650, 1650, 2000, 1600, 1200, 1350, 950, 850, 1850, 1900, 850, 1850, 1950];
pickup_time = [0, 1, 1, 1, 1, 1, 1, 2, 2, 2, 2, 3, 3, 3, 3, 4, 4, 4, 5, 6, 8, 8, 8, 8, 8, 9, 9, 9];
delivery_time = [2, 3, 3, 2, 3, 2, 2, 9, 11, 3, 4, 4, 5, 4, 4, 8, 8, 5, 7, 7, 9, 9, 10, 9, 9, 10, 11, 11];

% transporter definition
total_capacity = 11000;
num_decks = 4;
capacity = [3000, 3000, 1000, 4000];

% ways out of decks
num_ways_out = 2;
paths_out = array3d(decks, ways_out, decks, [
% ways out of deck d1
2, 4, 0, 0, 3, 4, 0, 0, 

% ways out of deck d2
4, 0, 0, 0, 0, 0, 0, 0,	

% ways out of deck d3
4, 0, 0, 0, 0, 0, 0, 0,	

% ways out of deck d4
0, 0, 0, 0,	0, 0, 0, 0,	

]);

